c Generated map
c Size: 8 * 8, weights in range: 1 to 10, walls: True, with ratio 0.05
c dim 8 of 9
c
p sp 64 101
c graph contains 64 nodes and 101 arcs
c
a 1 9 7
a 9 1 7
a 1 2 9
a 2 1 9
a 2 10 3
a 10 2 3
a 2 3 5
a 3 2 5
a 3 11 9
a 11 3 9
a 3 4 7
a 4 3 7
a 4 12 5
a 12 4 5
a 4 5 6
a 5 4 6
a 5 13 10
a 13 5 10
a 5 6 1
a 6 5 1
a 6 14 8
a 14 6 8
a 6 7 8
a 7 6 8
a 7 15 1
a 15 7 1
a 7 8 2
a 8 7 2
a 8 16 9
a 16 8 9
a 9 17 1
a 17 9 1
a 9 10 6
a 10 9 6
a 10 18 6
a 18 10 6
a 10 11 10
a 11 10 10
a 11 19 6
a 19 11 6
a 11 12 6
a 12 11 6
a 12 20 1
a 20 12 1
a 12 13 1
a 13 12 1
a 13 21 2
a 21 13 2
a 13 14 1
a 14 13 1
a 14 22 10
a 22 14 10
a 14 15 4
a 15 14 4
a 15 23 9
a 23 15 9
a 15 16 1
a 16 15 1
a 16 24 10
a 24 16 10
a 17 25 1
a 25 17 1
a 17 18 9
a 18 17 9
a 18 26 1
a 26 18 1
a 18 19 6
a 19 18 6
a 19 27 1
a 27 19 1
a 19 20 6
a 20 19 6
a 20 28 5
a 28 20 5
a 20 21 2
a 21 20 2
a 21 29 3
a 29 21 3
a 21 22 5
a 22 21 5
a 22 30 4
a 30 22 4
a 22 23 6
a 23 22 6
a 23 31 10
a 31 23 10
a 23 24 5
a 24 23 5
a 24 32 2
a 32 24 2
a 25 33 7
a 33 25 7
a 25 26 2
a 26 25 2
a 26 34 8
a 34 26 8
a 26 27 1
a 27 26 1
a 27 35 4
a 35 27 4
a 27 28 1
a 28 27 1
a 28 36 7
a 36 28 7
a 28 29 10
a 29 28 10
a 29 37 3
a 37 29 3
a 29 30 10
a 30 29 10
a 30 38 3
a 38 30 3
a 30 31 7
a 31 30 7
a 31 39 9
a 39 31 9
a 31 32 5
a 32 31 5
a 32 40 1
a 40 32 1
a 33 41 7
a 41 33 7
a 33 34 2
a 34 33 2
a 34 42 7
a 42 34 7
a 34 35 3
a 35 34 3
a 35 43 3
a 43 35 3
a 35 36 4
a 36 35 4
a 36 44 5
a 44 36 5
a 36 37 4
a 37 36 4
a 37 45 9
a 45 37 9
a 37 38 3
a 38 37 3
a 38 46 9
a 46 38 9
a 38 39 10
a 39 38 10
a 39 40 1
a 40 39 1
a 40 48 4
a 48 40 4
a 41 49 5
a 49 41 5
a 41 42 1
a 42 41 1
a 42 43 10
a 43 42 10
a 43 51 9
a 51 43 9
a 43 44 5
a 44 43 5
a 44 52 5
a 52 44 5
a 44 45 3
a 45 44 3
a 45 53 3
a 53 45 3
a 45 46 9
a 46 45 9
a 46 54 2
a 54 46 2
a 48 56 6
a 56 48 6
a 49 57 5
a 57 49 5
a 51 59 5
a 59 51 5
a 51 52 5
a 52 51 5
a 52 60 4
a 60 52 4
a 52 53 3
a 53 52 3
a 53 54 9
a 54 53 9
a 54 62 9
a 62 54 9
a 54 55 2
a 55 54 2
a 55 63 1
a 63 55 1
a 55 56 4
a 56 55 4
a 56 64 7
a 64 56 7
a 57 58 5
a 58 57 5
a 58 59 6
a 59 58 6
a 59 60 5
a 60 59 5
a 62 63 10
a 63 62 10
a 63 64 7
a 64 63 7
